SAT/6539906_12.param
$ LBS instance with n = 12, seed = 6539906
letting cards be [48,16,29,33,46,38,13,24,2,7,44,11]
